1|ОПИ|10.0|10 8 8 8 10 10 9 2  10 10 9 2  10 10 9 2  10 10 9 2  10 10 9 2  10 10 9 2  10 10 9 2  10 10 9 2  10 10 9 2  10 10 9 2  10 10 9 2  10 10 9 2  10 10 9 2  10 10 9 2  10 10 9 2  10 10 9 2  10 10 9 2  10 10 9 2 
